NAME : ClusterId_1006 
COMMENT : (Gillet and Johnson) 
TYPE : CVRP 
DIMENSION : 20 
EDGE_WEIGHT_TYPE : EUC_2D 
CAPACITY : 500 
NODE_COORD_SECTION 
1006 7097 7036 
954 6494 7793 
110 6562 7424 
855 6615 7238 
688 6676 7794 
314 6666 7477 
232 6841 7608 
220 6949 7268 
200 7050 7771 
632 7067 7799 
157 7017 7239 
115 7127 7668 
93 7109 6863 
923 7156 7586 
699 7329 8095 
650 7260 7552 
223 7414 7003 
882 7470 7248 
630 7627 7441 
283 7957 7475 
DEMAND_SECTION 
1006 809
954 34
110 34
855 55
688 32
314 32
232 29
220 56
200 37
632 50
157 50
115 54
93 34
923 28
699 43
650 52
223 53
882 40
630 43
283 39
DEPOT_SECTION 
1006
 -1
EOF